23.37 58.35
25.18 55.18
32.4 51.38
29.36 52.32
30.17 57.05
36.18 59.36
34.2 62.12
31.32 65.3
34.31 69.12
33.36 73.04
31.35 74.18
31.25 73.05
30.11 71.29
30.12 67.0
27.42 68.52
25.22 68.22
24.52 67.03
30.19 78.02
28.4 77.13
26.17 73.02
26.55 75.49
26.28 80.21
25.2 83.0
25.36 85.07
22.32 88.22
23.02 72.37
21.09 79.06
20.3 85.5
18.58 72.5
17.23 78.29
17.42 83.18
27.43 85.19
27.28 89.39
23.43 90.25
22.2 91.5
22.0 96.05
18.47 98.59
19.52 102.08
17.58 102.36
21.02 105.51
22.17 114.09
29.4 91.09
36.03 103.41
34.15 108.52
30.39 104.04
29.39 106.34
25.05 102.4
23.06 113.16
30.36 114.17
34.48 113.39
